100
1000
200
200
200
199
198
198
197
197
194
194
193
192
191
191
191
190
190
189
188
188
187
187
186
185
185
185
185
184
184
184
183
183
183
182
182
182
181
181
180
179
179
179
179
178
177
177
177
177
175
174
173
173
172
171
171
171
170
170
169
169
169
167
167
165
165
164
163
163
163
163
162
161
160
160
159
158
158
158
157
156
156
156
156
156
156
155
155
155
154
154
153
152
152
152
151
151
150
150
150
150
